db/data/246991682929472693724047848021672509.z3.out
-------------------
2500.156613052
